0 1880 
1 1880 
2 1876 
3 1872 
4 1872 
5 1870 
6 1858 
7 1852 
8 1848 
9 1836 
10 1828 
11 1820 
12 1812 
13 1798 
14 1792 
15 1784 
16 1778 
17 1776 
18 1770 
19 1756 
20 1752 
21 1748 
22 1736 
23 1732 
24 1730 
25 1718 
26 1716 
27 1706 
28 1706 
29 1700 
30 1698 
31 1694 
32 1690 
33 1684 
34 1680 
35 1680 
36 1680 
37 1680 
38 1680 
39 1680 
40 1680 
41 1676 
42 1676 

